p tw 20 53
0 1
0 2
0 10
0 4
0 16
0 12
1 2
1 8
1 17
1 16
1 10
2 3
2 11
2 17
2 6
3 6
3 17
3 14
3 13
4 5
4 14
4 15
4 7
4 17
4 10
5 11
5 17
5 18
5 7
5 16
6 7
6 11
6 16
7 16
7 14
7 11
8 9
8 11
8 18
9 12
9 16
9 11
9 19
10 11
10 13
10 18
10 17
11 13
12 16
12 17
12 18
15 19
16 18
